NAME : optical-integer.pruned_global_8.0.tour
COMMENT : Length = 0
TYPE : TOUR
DIMENSION : 174
TOUR_SECTION
1
3
5
37
38
36
169
13
15
17
16
14
12
11
10
9
8
7
6
4
135
50
52
53
51
88
89
90
91
92
93
94
95
96
98
104
112
114
113
111
129
106
160
120
122
116
161
139
102
138
125
115
110
159
137
126
140
101
105
107
109
108
174
148
144
162
132
123
134
103
166
100
121
119
117
124
133
164
128
136
158
155
156
168
171
172
170
165
141
167
163
157
127
142
147
143
146
131
150
154
153
152
151
149
145
130
118
99
82
173
18
19
20
21
22
23
24
25
26
28
30
32
34
35
33
31
29
27
97
76
77
78
79
80
81
83
84
85
87
86
54
55
56
57
58
59
60
61
62
63
64
65
66
67
68
69
70
71
72
73
74
75
48
42
44
46
49
47
45
43
41
40
39
2
-1
EOF
